MARKOV
440
2 2 2 2 2 2 2 2 2 2 2 2 2 2 2 2 2 2 2 2 2 2 2 2 2 2 2 2 2 2 2 2 2 2 2 2 2 2 2 2 2 2 2 2 2 2 2 2 2 2 2 2 2 2 2 2 2 2 2 2 2 2 2 2 2 2 2 2 2 2 2 2 2 2 2 2 2 2 2 2 2 2 2 2 2 2 2 2 2 2 2 2 2 2 2 2 2 2 2 2 2 2 2 2 2 2 2 2 2 2 2 2 2 2 2 2 2 2 2 2 2 2 2 2 2 2 2 2 2 2 2 2 2 2 2 2 2 2 2 2 2 2 2 2 2 2 2 2 2 2 2 2 2 2 2 2 2 2 2 2 2 2 2 2 2 2 2 2 2 2 2 2 2 2 2 2 2 2 2 2 2 2 2 2 2 2 2 2 2 2 2 2 2 2 2 2 2 2 2 2 2 2 2 2 2 2 2 2 2 2 2 2 2 2 2 2 2 2 2 2 2 2 2 2 2 2 2 2 2 2 2 2 2 2 2 2 2 2 2 2 2 2 2 2 2 2 2 2 2 2 2 2 2 2 2 2 2 2 2 2 2 2 2 2 2 2 2 2 2 2 2 2 2 2 2 2 2 2 2 2 2 2 2 2 2 2 2 2 2 2 2 2 2 2 2 2 2 2 2 2 2 2 2 2 2 2 2 2 2 2 2 2 2 2 2 2 2 2 2 2 2 2 2 2 2 2 2 2 2 2 2 2 2 2 2 2 2 2 2 2 2 2 2 2 2 2 2 2 2 2 2 2 2 2 2 2 2 2 2 2 2 2 2 2 2 2 2 2 2 2 2 2 2 2 2 2 2 2 2 2 2 2 2 2 2 2 2 2 2 2 2 2 2 2 2 2 2 2 2 2 2 2 2 2 2 2 2 2 2 2 2 2 2 2 2 2 2 2 2 2 2 2 2 2 2 2 2 2 2 2 2 2 2 2 2 2 2 2 2 2 
440
2	345	0
1	1
3	231	42	2
3	270	393	3
1	4
4	158	254	207	5
3	97	126	6
3	47	307	7
4	410	37	55	8
3	2	66	9
3	92	408	10
1	11
2	365	12
3	342	73	13
3	288	213	14
3	88	275	15
2	88	16
3	194	336	17
2	435	18
2	144	19
2	27	20
1	21
3	141	186	22
2	199	23
3	264	316	24
3	340	227	25
3	410	426	26
1	27
3	117	272	28
3	100	7	29
2	145	30
3	21	291	31
3	15	19	32
3	399	293	33
2	215	34
3	212	113	35
3	405	90	36
4	406	291	137	37
3	407	112	38
3	375	279	39
3	300	424	40
3	338	385	41
2	299	42
2	121	43
3	177	31	44
1	45
3	81	377	46
2	87	47
2	105	48
3	71	108	49
3	350	37	50
4	302	214	331	51
3	194	137	52
2	306	53
3	311	264	54
4	350	89	361	55
1	56
3	320	272	57
3	28	110	58
3	112	159	59
3	240	205	60
3	42	351	61
4	315	58	428	62
3	436	256	63
3	0	293	64
1	65
3	100	352	66
2	49	67
3	352	396	68
1	69
2	26	70
1	71
3	200	421	72
3	187	391	73
3	332	318	74
3	166	380	75
5	75	326	72	190	76
3	142	145	77
3	32	262	78
4	153	50	26	79
3	27	71	80
3	6	249	81
3	252	331	82
2	45	83
3	142	139	84
3	375	394	85
2	231	86
1	87
3	269	142	88
1	89
3	404	418	90
3	408	135	91
3	210	250	92
3	214	82	93
3	287	306	94
1	95
3	406	243	96
1	97
3	426	281	98
3	240	316	99
2	240	100
3	20	54	101
2	322	102
3	365	165	103
1	104
3	143	271	105
3	324	390	106
3	366	227	107
3	426	235	108
2	416	109
3	382	186	110
3	332	160	111
3	432	416	112
3	409	30	113
3	332	280	114
2	261	115
3	297	323	116
4	153	372	96	117
2	290	118
3	332	80	119
1	120
3	99	356	121
4	167	89	385	122
3	434	369	123
3	253	201	124
3	40	298	125
3	302	397	126
3	153	243	127
2	317	128
4	158	41	258	129
1	130
3	389	361	131
2	5	132
3	426	32	133
3	59	224	134
3	153	142	135
3	430	222	136
3	87	236	137
3	405	176	138
2	164	139
3	407	1	140
3	352	127	141
2	406	142
3	217	285	143
3	302	234	144
4	426	291	235	145
3	296	294	146
3	21	118	147
1	148
4	20	128	361	149
3	277	437	150
3	144	416	151
3	381	180	152
1	153
1	154
3	241	299	155
3	336	126	156
3	296	399	157
3	142	376	158
3	307	135	159
2	96	160
3	89	275	161
3	93	260	162
3	149	181	163
3	87	108	164
3	375	328	165
2	8	166
2	350	167
1	168
3	29	2	169
3	255	365	170
1	171
3	432	352	172
3	405	151	173
3	296	405	174
2	220	175
3	144	135	176
3	332	203	177
3	269	355	178
4	327	189	138	179
3	317	348	180
3	244	256	181
3	106	43	182
2	129	183
3	332	135	184
3	350	70	185
3	135	224	186
3	188	222	187
3	115	17	188
2	162	189
2	178	190
4	406	429	185	191
1	192
3	333	84	193
3	426	332	194
2	293	195
2	266	196
3	406	44	197
3	192	167	198
3	325	163	199
4	1	407	117	200
3	296	196	201
2	219	202
2	127	203
5	289	170	384	10	204
4	324	44	316	205
3	27	202	206
3	94	266	207
3	247	66	208
3	214	155	209
3	302	88	210
3	18	156	211
3	137	22	212
2	71	213
1	214
3	282	36	215
2	161	216
3	200	265	217
3	87	214	218
3	264	364	219
4	65	111	31	220
3	407	20	221
3	97	423	222
3	64	420	223
3	410	350	224
3	47	159	225
3	432	259	226
3	86	197	227
1	228
4	410	409	397	229
2	131	230
1	231
3	153	158	232
3	57	12	233
2	224	234
2	243	235
1	236
2	421	237
3	231	208	238
1	239
1	240
2	99	241
4	226	49	16	242
3	302	224	243
3	214	311	244
4	406	372	127	245
1	246
3	20	409	247
3	158	74	248
3	214	405	249
3	83	216	250
3	177	39	251
2	399	252
3	63	149	253
3	274	293	254
4	427	67	247	255
3	214	140	256
2	107	257
3	411	303	258
3	116	238	259
2	191	260
3	89	98	261
3	142	177	262
3	91	337	263
2	415	264
3	231	309	265
3	350	178	266
3	150	257	267
4	78	102	34	268
2	153	269
3	157	242	270
3	167	354	271
3	407	1	272
1	273
3	153	376	274
3	153	406	275
3	366	61	276
3	0	352	277
2	62	278
2	141	279
2	418	280
3	314	119	281
3	77	439	282
3	166	60	283
4	237	283	103	284
2	358	285
3	20	131	286
3	400	184	287
1	288
3	125	101	289
3	32	134	290
2	80	291
3	433	341	292
4	21	142	127	293
3	422	344	294
4	327	378	13	295
2	56	296
3	409	352	297
3	352	286	298
3	1	197	299
2	336	300
3	288	71	301
2	89	302
3	236	251	303
3	288	80	304
3	296	32	305
3	21	234	306
2	236	307
2	3	308
3	241	340	309
2	193	310
3	7	137	311
1	312
2	267	313
3	56	409	314
3	319	413	315
3	87	307	316
3	71	389	317
3	430	221	318
3	371	286	319
2	298	320
3	38	225	321
3	35	343	322
3	65	20	323
3	86	140	324
3	242	313	325
3	232	305	326
2	158	327
3	24	202	328
3	111	85	329
3	233	335	330
3	184	53	331
2	409	332
3	68	353	333
3	409	55	334
3	146	10	335
3	65	1	336
3	83	158	337
3	1	329	338
3	12	230	339
3	432	175	340
3	214	375	341
3	276	257	342
3	368	387	343
3	246	405	344
1	345
3	124	211	346
3	213	219	347
3	172	218	348
2	280	349
1	350
3	269	175	351
2	214	352
3	236	20	353
3	336	190	354
4	89	142	70	355
3	236	150	356
4	263	266	413	357
3	292	12	358
3	100	25	359
3	173	123	360
3	426	269	361
4	152	248	310	362
3	114	8	363
3	47	236	364
4	403	275	221	365
3	236	240	366
1	367
4	15	194	234	368
3	214	229	369
3	206	330	370
2	63	371
3	401	426	372
1	373
3	417	414	374
3	27	71	375
3	302	408	376
3	434	383	377
2	346	378
3	20	347	379
3	419	198	380
3	88	26	381
3	115	52	382
3	352	229	383
3	205	359	384
2	381	385
1	386
3	336	136	387
3	9	313	388
2	396	389
2	197	390
3	364	245	391
1	392
3	379	313	393
2	430	394
3	327	260	395
3	409	160	396
3	426	423	397
4	255	339	363	398
3	302	229	399
3	302	15	400
3	71	247	401
1	402
3	47	49	403
3	332	0	404
2	293	405
1	406
2	65	407
2	185	408
1	409
2	97	410
3	406	334	411
2	398	412
3	302	79	413
3	174	182	414
4	406	194	141	415
3	269	406	416
3	147	209	417
4	153	355	198	418
2	355	419
3	368	133	420
3	316	245	421
2	94	422
3	350	109	423
3	407	432	424
1	425
2	21	426
2	321	427
3	169	435	428
3	89	269	429
3	214	96	430
1	431
2	1	432
3	40	131	433
2	51	434
3	153	77	435
3	214	316	436
3	345	214	437
1	438
3	407	164	439

4
 0.000000 1.000000
 1.000000 0.000000

2
 0.500000 0.500000

8
 0.000000 1.000000
 0.000000 1.000000
 0.000000 1.000000
 1.000000 0.000000

8
 0.000000 1.000000
 1.000000 0.000000
 1.000000 0.000000
 1.000000 0.000000

2
 0.500000 0.500000

16
 0.000000 1.000000
 1.000000 0.000000
 1.000000 0.000000
 1.000000 0.000000
 1.000000 0.000000
 1.000000 0.000000
 1.000000 0.000000
 1.000000 0.000000

8
 1.000000 0.000000
 1.000000 0.000000
 1.000000 0.000000
 0.000000 1.000000

8
 0.000000 1.000000
 0.000000 1.000000
 0.000000 1.000000
 1.000000 0.000000

16
 0.000000 1.000000
 0.000000 1.000000
 0.000000 1.000000
 0.000000 1.000000
 0.000000 1.000000
 0.000000 1.000000
 0.000000 1.000000
 1.000000 0.000000

8
 1.000000 0.000000
 0.000000 1.000000
 0.000000 1.000000
 0.000000 1.000000

8
 0.000000 1.000000
 0.000000 1.000000
 0.000000 1.000000
 1.000000 0.000000

2
 0.500000 0.500000

4
 0.000000 1.000000
 1.000000 0.000000

8
 0.000000 1.000000
 1.000000 0.000000
 1.000000 0.000000
 1.000000 0.000000

8
 0.000000 1.000000
 1.000000 0.000000
 1.000000 0.000000
 1.000000 0.000000

8
 0.000000 1.000000
 0.000000 1.000000
 0.000000 1.000000
 1.000000 0.000000

4
 0.000000 1.000000
 1.000000 0.000000

8
 1.000000 0.000000
 1.000000 0.000000
 1.000000 0.000000
 0.000000 1.000000

4
 0.000000 1.000000
 1.000000 0.000000

4
 0.000000 1.000000
 1.000000 0.000000

4
 0.000000 1.000000
 1.000000 0.000000

2
 0.500000 0.500000

8
 0.000000 1.000000
 0.000000 1.000000
 0.000000 1.000000
 1.000000 0.000000

4
 0.000000 1.000000
 1.000000 0.000000

8
 1.000000 0.000000
 0.000000 1.000000
 0.000000 1.000000
 0.000000 1.000000

8
 0.000000 1.000000
 0.000000 1.000000
 0.000000 1.000000
 1.000000 0.000000

8
 0.000000 1.000000
 0.000000 1.000000
 0.000000 1.000000
 1.000000 0.000000

2
 0.500000 0.500000

8
 1.000000 0.000000
 0.000000 1.000000
 0.000000 1.000000
 0.000000 1.000000

8
 0.000000 1.000000
 1.000000 0.000000
 1.000000 0.000000
 1.000000 0.000000

4
 0.000000 1.000000
 1.000000 0.000000

8
 0.000000 1.000000
 1.000000 0.000000
 1.000000 0.000000
 1.000000 0.000000

8
 0.000000 1.000000
 1.000000 0.000000
 1.000000 0.000000
 1.000000 0.000000

8
 0.000000 1.000000
 0.000000 1.000000
 0.000000 1.000000
 1.000000 0.000000

4
 0.000000 1.000000
 1.000000 0.000000

8
 0.000000 1.000000
 1.000000 0.000000
 1.000000 0.000000
 1.000000 0.000000

8
 0.000000 1.000000
 1.000000 0.000000
 1.000000 0.000000
 1.000000 0.000000

16
 0.000000 1.000000
 1.000000 0.000000
 1.000000 0.000000
 1.000000 0.000000
 1.000000 0.000000
 1.000000 0.000000
 1.000000 0.000000
 1.000000 0.000000

8
 1.000000 0.000000
 0.000000 1.000000
 0.000000 1.000000
 0.000000 1.000000

8
 1.000000 0.000000
 1.000000 0.000000
 1.000000 0.000000
 0.000000 1.000000

8
 0.000000 1.000000
 1.000000 0.000000
 1.000000 0.000000
 1.000000 0.000000

8
 0.000000 1.000000
 0.000000 1.000000
 0.000000 1.000000
 1.000000 0.000000

4
 0.000000 1.000000
 1.000000 0.000000

4
 0.000000 1.000000
 1.000000 0.000000

8
 0.000000 1.000000
 0.000000 1.000000
 0.000000 1.000000
 1.000000 0.000000

2
 0.500000 0.500000

8
 0.000000 1.000000
 0.000000 1.000000
 0.000000 1.000000
 1.000000 0.000000

4
 0.000000 1.000000
 1.000000 0.000000

4
 0.000000 1.000000
 1.000000 0.000000

8
 0.000000 1.000000
 1.000000 0.000000
 1.000000 0.000000
 1.000000 0.000000

8
 0.000000 1.000000
 1.000000 0.000000
 1.000000 0.000000
 1.000000 0.000000

16
 0.000000 1.000000
 0.000000 1.000000
 0.000000 1.000000
 0.000000 1.000000
 0.000000 1.000000
 0.000000 1.000000
 0.000000 1.000000
 1.000000 0.000000

8
 1.000000 0.000000
 1.000000 0.000000
 1.000000 0.000000
 0.000000 1.000000

4
 0.000000 1.000000
 1.000000 0.000000

8
 0.000000 1.000000
 1.000000 0.000000
 1.000000 0.000000
 1.000000 0.000000

16
 0.000000 1.000000
 1.000000 0.000000
 1.000000 0.000000
 1.000000 0.000000
 1.000000 0.000000
 1.000000 0.000000
 1.000000 0.000000
 1.000000 0.000000

2
 0.500000 0.500000

8
 1.000000 0.000000
 0.000000 1.000000
 0.000000 1.000000
 0.000000 1.000000

8
 0.000000 1.000000
 0.000000 1.000000
 0.000000 1.000000
 1.000000 0.000000

8
 0.000000 1.000000
 0.000000 1.000000
 0.000000 1.000000
 1.000000 0.000000

8
 1.000000 0.000000
 1.000000 0.000000
 1.000000 0.000000
 0.000000 1.000000

8
 0.000000 1.000000
 1.000000 0.000000
 1.000000 0.000000
 1.000000 0.000000

16
 0.000000 1.000000
 1.000000 0.000000
 1.000000 0.000000
 1.000000 0.000000
 1.000000 0.000000
 1.000000 0.000000
 1.000000 0.000000
 1.000000 0.000000

8
 0.000000 1.000000
 0.000000 1.000000
 0.000000 1.000000
 1.000000 0.000000

8
 1.000000 0.000000
 0.000000 1.000000
 0.000000 1.000000
 0.000000 1.000000

2
 0.500000 0.500000

8
 0.000000 1.000000
 0.000000 1.000000
 0.000000 1.000000
 1.000000 0.000000

4
 0.000000 1.000000
 1.000000 0.000000

8
 0.000000 1.000000
 0.000000 1.000000
 0.000000 1.000000
 1.000000 0.000000

2
 0.500000 0.500000

4
 0.000000 1.000000
 1.000000 0.000000

2
 0.500000 0.500000

8
 0.000000 1.000000
 1.000000 0.000000
 1.000000 0.000000
 1.000000 0.000000

8
 0.000000 1.000000
 0.000000 1.000000
 0.000000 1.000000
 1.000000 0.000000

8
 1.000000 0.000000
 1.000000 0.000000
 1.000000 0.000000
 0.000000 1.000000

8
 0.000000 1.000000
 1.000000 0.000000
 1.000000 0.000000
 1.000000 0.000000

32
 0.000000 1.000000
 0.000000 1.000000
 0.000000 1.000000
 0.000000 1.000000
 0.000000 1.000000
 0.000000 1.000000
 0.000000 1.000000
 0.000000 1.000000
 0.000000 1.000000
 0.000000 1.000000
 0.000000 1.000000
 0.000000 1.000000
 0.000000 1.000000
 0.000000 1.000000
 0.000000 1.000000
 1.000000 0.000000

8
 0.000000 1.000000
 1.000000 0.000000
 1.000000 0.000000
 1.000000 0.000000

8
 0.000000 1.000000
 1.000000 0.000000
 1.000000 0.000000
 1.000000 0.000000

16
 0.000000 1.000000
 1.000000 0.000000
 1.000000 0.000000
 1.000000 0.000000
 1.000000 0.000000
 1.000000 0.000000
 1.000000 0.000000
 1.000000 0.000000

8
 0.000000 1.000000
 1.000000 0.000000
 1.000000 0.000000
 1.000000 0.000000

8
 0.000000 1.000000
 1.000000 0.000000
 1.000000 0.000000
 1.000000 0.000000

8
 0.000000 1.000000
 1.000000 0.000000
 1.000000 0.000000
 1.000000 0.000000

4
 0.000000 1.000000
 1.000000 0.000000

8
 1.000000 0.000000
 0.000000 1.000000
 0.000000 1.000000
 0.000000 1.000000

8
 1.000000 0.000000
 1.000000 0.000000
 1.000000 0.000000
 0.000000 1.000000

4
 0.000000 1.000000
 1.000000 0.000000

2
 0.500000 0.500000

8
 0.000000 1.000000
 0.000000 1.000000
 0.000000 1.000000
 1.000000 0.000000

2
 0.500000 0.500000

8
 1.000000 0.000000
 1.000000 0.000000
 1.000000 0.000000
 0.000000 1.000000

8
 1.000000 0.000000
 1.000000 0.000000
 1.000000 0.000000
 0.000000 1.000000

8
 0.000000 1.000000
 0.000000 1.000000
 0.000000 1.000000
 1.000000 0.000000

8
 1.000000 0.000000
 0.000000 1.000000
 0.000000 1.000000
 0.000000 1.000000

8
 0.000000 1.000000
 0.000000 1.000000
 0.000000 1.000000
 1.000000 0.000000

2
 0.500000 0.500000

8
 0.000000 1.000000
 1.000000 0.000000
 1.000000 0.000000
 1.000000 0.000000

2
 0.500000 0.500000

8
 1.000000 0.000000
 1.000000 0.000000
 1.000000 0.000000
 0.000000 1.000000

8
 0.000000 1.000000
 0.000000 1.000000
 0.000000 1.000000
 1.000000 0.000000

4
 0.000000 1.000000
 1.000000 0.000000

8
 1.000000 0.000000
 1.000000 0.000000
 1.000000 0.000000
 0.000000 1.000000

4
 0.000000 1.000000
 1.000000 0.000000

8
 0.000000 1.000000
 1.000000 0.000000
 1.000000 0.000000
 1.000000 0.000000

2
 0.500000 0.500000

8
 0.000000 1.000000
 1.000000 0.000000
 1.000000 0.000000
 1.000000 0.000000

8
 0.000000 1.000000
 1.000000 0.000000
 1.000000 0.000000
 1.000000 0.000000

8
 0.000000 1.000000
 1.000000 0.000000
 1.000000 0.000000
 1.000000 0.000000

8
 0.000000 1.000000
 0.000000 1.000000
 0.000000 1.000000
 1.000000 0.000000

4
 0.000000 1.000000
 1.000000 0.000000

8
 1.000000 0.000000
 0.000000 1.000000
 0.000000 1.000000
 0.000000 1.000000

8
 0.000000 1.000000
 1.000000 0.000000
 1.000000 0.000000
 1.000000 0.000000

8
 0.000000 1.000000
 0.000000 1.000000
 0.000000 1.000000
 1.000000 0.000000

8
 1.000000 0.000000
 1.000000 0.000000
 1.000000 0.000000
 0.000000 1.000000

8
 1.000000 0.000000
 0.000000 1.000000
 0.000000 1.000000
 0.000000 1.000000

4
 0.000000 1.000000
 1.000000 0.000000

8
 1.000000 0.000000
 1.000000 0.000000
 1.000000 0.000000
 0.000000 1.000000

16
 0.000000 1.000000
 0.000000 1.000000
 0.000000 1.000000
 0.000000 1.000000
 0.000000 1.000000
 0.000000 1.000000
 0.000000 1.000000
 1.000000 0.000000

4
 0.000000 1.000000
 1.000000 0.000000

8
 1.000000 0.000000
 0.000000 1.000000
 0.000000 1.000000
 0.000000 1.000000

2
 0.500000 0.500000

8
 0.000000 1.000000
 1.000000 0.000000
 1.000000 0.000000
 1.000000 0.000000

16
 0.000000 1.000000
 1.000000 0.000000
 1.000000 0.000000
 1.000000 0.000000
 1.000000 0.000000
 1.000000 0.000000
 1.000000 0.000000
 1.000000 0.000000

8
 0.000000 1.000000
 1.000000 0.000000
 1.000000 0.000000
 1.000000 0.000000

8
 0.000000 1.000000
 1.000000 0.000000
 1.000000 0.000000
 1.000000 0.000000

8
 1.000000 0.000000
 1.000000 0.000000
 1.000000 0.000000
 0.000000 1.000000

8
 0.000000 1.000000
 1.000000 0.000000
 1.000000 0.000000
 1.000000 0.000000

8
 0.000000 1.000000
 1.000000 0.000000
 1.000000 0.000000
 1.000000 0.000000

4
 0.000000 1.000000
 1.000000 0.000000

16
 0.000000 1.000000
 1.000000 0.000000
 1.000000 0.000000
 1.000000 0.000000
 1.000000 0.000000
 1.000000 0.000000
 1.000000 0.000000
 1.000000 0.000000

2
 0.500000 0.500000

8
 0.000000 1.000000
 1.000000 0.000000
 1.000000 0.000000
 1.000000 0.000000

4
 0.000000 1.000000
 1.000000 0.000000

8
 1.000000 0.000000
 1.000000 0.000000
 1.000000 0.000000
 0.000000 1.000000

8
 1.000000 0.000000
 1.000000 0.000000
 1.000000 0.000000
 0.000000 1.000000

8
 0.000000 1.000000
 1.000000 0.000000
 1.000000 0.000000
 1.000000 0.000000

8
 0.000000 1.000000
 0.000000 1.000000
 0.000000 1.000000
 1.000000 0.000000

8
 0.000000 1.000000
 0.000000 1.000000
 0.000000 1.000000
 1.000000 0.000000

8
 0.000000 1.000000
 1.000000 0.000000
 1.000000 0.000000
 1.000000 0.000000

4
 0.000000 1.000000
 1.000000 0.000000

8
 0.000000 1.000000
 1.000000 0.000000
 1.000000 0.000000
 1.000000 0.000000

8
 0.000000 1.000000
 0.000000 1.000000
 0.000000 1.000000
 1.000000 0.000000

4
 0.000000 1.000000
 1.000000 0.000000

8
 0.000000 1.000000
 0.000000 1.000000
 0.000000 1.000000
 1.000000 0.000000

8
 0.000000 1.000000
 1.000000 0.000000
 1.000000 0.000000
 1.000000 0.000000

16
 0.000000 1.000000
 0.000000 1.000000
 0.000000 1.000000
 0.000000 1.000000
 0.000000 1.000000
 0.000000 1.000000
 0.000000 1.000000
 1.000000 0.000000

8
 1.000000 0.000000
 0.000000 1.000000
 0.000000 1.000000
 0.000000 1.000000

8
 1.000000 0.000000
 1.000000 0.000000
 1.000000 0.000000
 0.000000 1.000000

2
 0.500000 0.500000

16
 0.000000 1.000000
 1.000000 0.000000
 1.000000 0.000000
 1.000000 0.000000
 1.000000 0.000000
 1.000000 0.000000
 1.000000 0.000000
 1.000000 0.000000

8
 0.000000 1.000000
 1.000000 0.000000
 1.000000 0.000000
 1.000000 0.000000

8
 1.000000 0.000000
 1.000000 0.000000
 1.000000 0.000000
 0.000000 1.000000

8
 0.000000 1.000000
 1.000000 0.000000
 1.000000 0.000000
 1.000000 0.000000

2
 0.500000 0.500000

2
 0.500000 0.500000

8
 0.000000 1.000000
 1.000000 0.000000
 1.000000 0.000000
 1.000000 0.000000

8
 1.000000 0.000000
 1.000000 0.000000
 1.000000 0.000000
 0.000000 1.000000

8
 1.000000 0.000000
 0.000000 1.000000
 0.000000 1.000000
 0.000000 1.000000

8
 0.000000 1.000000
 1.000000 0.000000
 1.000000 0.000000
 1.000000 0.000000

8
 0.000000 1.000000
 0.000000 1.000000
 0.000000 1.000000
 1.000000 0.000000

4
 0.000000 1.000000
 1.000000 0.000000

8
 0.000000 1.000000
 1.000000 0.000000
 1.000000 0.000000
 1.000000 0.000000

8
 0.000000 1.000000
 0.000000 1.000000
 0.000000 1.000000
 1.000000 0.000000

8
 1.000000 0.000000
 1.000000 0.000000
 1.000000 0.000000
 0.000000 1.000000

8
 0.000000 1.000000
 1.000000 0.000000
 1.000000 0.000000
 1.000000 0.000000

8
 1.000000 0.000000
 1.000000 0.000000
 1.000000 0.000000
 0.000000 1.000000

4
 0.000000 1.000000
 1.000000 0.000000

4
 0.000000 1.000000
 1.000000 0.000000

2
 0.500000 0.500000

8
 1.000000 0.000000
 0.000000 1.000000
 0.000000 1.000000
 0.000000 1.000000

8
 0.000000 1.000000
 1.000000 0.000000
 1.000000 0.000000
 1.000000 0.000000

2
 0.500000 0.500000

8
 1.000000 0.000000
 0.000000 1.000000
 0.000000 1.000000
 0.000000 1.000000

8
 0.000000 1.000000
 1.000000 0.000000
 1.000000 0.000000
 1.000000 0.000000

8
 1.000000 0.000000
 1.000000 0.000000
 1.000000 0.000000
 0.000000 1.000000

4
 0.000000 1.000000
 1.000000 0.000000

8
 1.000000 0.000000
 1.000000 0.000000
 1.000000 0.000000
 0.000000 1.000000

8
 0.000000 1.000000
 1.000000 0.000000
 1.000000 0.000000
 1.000000 0.000000

8
 0.000000 1.000000
 1.000000 0.000000
 1.000000 0.000000
 1.000000 0.000000

16
 0.000000 1.000000
 0.000000 1.000000
 0.000000 1.000000
 0.000000 1.000000
 0.000000 1.000000
 0.000000 1.000000
 0.000000 1.000000
 1.000000 0.000000

8
 1.000000 0.000000
 1.000000 0.000000
 1.000000 0.000000
 0.000000 1.000000

8
 0.000000 1.000000
 0.000000 1.000000
 0.000000 1.000000
 1.000000 0.000000

8
 1.000000 0.000000
 1.000000 0.000000
 1.000000 0.000000
 0.000000 1.000000

4
 0.000000 1.000000
 1.000000 0.000000

8
 0.000000 1.000000
 0.000000 1.000000
 0.000000 1.000000
 1.000000 0.000000

8
 0.000000 1.000000
 0.000000 1.000000
 0.000000 1.000000
 1.000000 0.000000

8
 0.000000 1.000000
 0.000000 1.000000
 0.000000 1.000000
 1.000000 0.000000

8
 1.000000 0.000000
 0.000000 1.000000
 0.000000 1.000000
 0.000000 1.000000

8
 0.000000 1.000000
 1.000000 0.000000
 1.000000 0.000000
 1.000000 0.000000

4
 0.000000 1.000000
 1.000000 0.000000

4
 0.000000 1.000000
 1.000000 0.000000

16
 0.000000 1.000000
 1.000000 0.000000
 1.000000 0.000000
 1.000000 0.000000
 1.000000 0.000000
 1.000000 0.000000
 1.000000 0.000000
 1.000000 0.000000

2
 0.500000 0.500000

8
 0.000000 1.000000
 0.000000 1.000000
 0.000000 1.000000
 1.000000 0.000000

8
 0.000000 1.000000
 0.000000 1.000000
 0.000000 1.000000
 1.000000 0.000000

4
 0.000000 1.000000
 1.000000 0.000000

4
 0.000000 1.000000
 1.000000 0.000000

8
 0.000000 1.000000
 1.000000 0.000000
 1.000000 0.000000
 1.000000 0.000000

8
 0.000000 1.000000
 0.000000 1.000000
 0.000000 1.000000
 1.000000 0.000000

8
 0.000000 1.000000
 1.000000 0.000000
 1.000000 0.000000
 1.000000 0.000000

16
 0.000000 1.000000
 1.000000 0.000000
 1.000000 0.000000
 1.000000 0.000000
 1.000000 0.000000
 1.000000 0.000000
 1.000000 0.000000
 1.000000 0.000000

8
 1.000000 0.000000
 1.000000 0.000000
 1.000000 0.000000
 0.000000 1.000000

4
 0.000000 1.000000
 1.000000 0.000000

4
 0.000000 1.000000
 1.000000 0.000000

32
 0.000000 1.000000
 0.000000 1.000000
 0.000000 1.000000
 0.000000 1.000000
 0.000000 1.000000
 0.000000 1.000000
 0.000000 1.000000
 0.000000 1.000000
 0.000000 1.000000
 0.000000 1.000000
 0.000000 1.000000
 0.000000 1.000000
 0.000000 1.000000
 0.000000 1.000000
 0.000000 1.000000
 1.000000 0.000000

16
 0.000000 1.000000
 1.000000 0.000000
 1.000000 0.000000
 1.000000 0.000000
 1.000000 0.000000
 1.000000 0.000000
 1.000000 0.000000
 1.000000 0.000000

8
 1.000000 0.000000
 0.000000 1.000000
 0.000000 1.000000
 0.000000 1.000000

8
 0.000000 1.000000
 0.000000 1.000000
 0.000000 1.000000
 1.000000 0.000000

8
 0.000000 1.000000
 1.000000 0.000000
 1.000000 0.000000
 1.000000 0.000000

8
 1.000000 0.000000
 1.000000 0.000000
 1.000000 0.000000
 0.000000 1.000000

8
 1.000000 0.000000
 0.000000 1.000000
 0.000000 1.000000
 0.000000 1.000000

8
 0.000000 1.000000
 1.000000 0.000000
 1.000000 0.000000
 1.000000 0.000000

8
 1.000000 0.000000
 1.000000 0.000000
 1.000000 0.000000
 0.000000 1.000000

4
 0.000000 1.000000
 1.000000 0.000000

2
 0.500000 0.500000

8
 0.000000 1.000000
 0.000000 1.000000
 0.000000 1.000000
 1.000000 0.000000

4
 0.000000 1.000000
 1.000000 0.000000

8
 0.000000 1.000000
 1.000000 0.000000
 1.000000 0.000000
 1.000000 0.000000

8
 1.000000 0.000000
 0.000000 1.000000
 0.000000 1.000000
 0.000000 1.000000

8
 0.000000 1.000000
 1.000000 0.000000
 1.000000 0.000000
 1.000000 0.000000

16
 0.000000 1.000000
 0.000000 1.000000
 0.000000 1.000000
 0.000000 1.000000
 0.000000 1.000000
 0.000000 1.000000
 0.000000 1.000000
 1.000000 0.000000

8
 0.000000 1.000000
 0.000000 1.000000
 0.000000 1.000000
 1.000000 0.000000

8
 0.000000 1.000000
 0.000000 1.000000
 0.000000 1.000000
 1.000000 0.000000

8
 0.000000 1.000000
 0.000000 1.000000
 0.000000 1.000000
 1.000000 0.000000

8
 0.000000 1.000000
 1.000000 0.000000
 1.000000 0.000000
 1.000000 0.000000

8
 1.000000 0.000000
 0.000000 1.000000
 0.000000 1.000000
 0.000000 1.000000

8
 0.000000 1.000000
 1.000000 0.000000
 1.000000 0.000000
 1.000000 0.000000

8
 0.000000 1.000000
 0.000000 1.000000
 0.000000 1.000000
 1.000000 0.000000

2
 0.500000 0.500000

16
 0.000000 1.000000
 1.000000 0.000000
 1.000000 0.000000
 1.000000 0.000000
 1.000000 0.000000
 1.000000 0.000000
 1.000000 0.000000
 1.000000 0.000000

4
 0.000000 1.000000
 1.000000 0.000000

2
 0.500000 0.500000

8
 1.000000 0.000000
 1.000000 0.000000
 1.000000 0.000000
 0.000000 1.000000

8
 0.000000 1.000000
 0.000000 1.000000
 0.000000 1.000000
 1.000000 0.000000

4
 0.000000 1.000000
 1.000000 0.000000

4
 0.000000 1.000000
 1.000000 0.000000

2
 0.500000 0.500000

4
 0.000000 1.000000
 1.000000 0.000000

8
 1.000000 0.000000
 1.000000 0.000000
 1.000000 0.000000
 0.000000 1.000000

2
 0.500000 0.500000

2
 0.500000 0.500000

4
 0.000000 1.000000
 1.000000 0.000000

16
 0.000000 1.000000
 0.000000 1.000000
 0.000000 1.000000
 0.000000 1.000000
 0.000000 1.000000
 0.000000 1.000000
 0.000000 1.000000
 1.000000 0.000000

8
 0.000000 1.000000
 0.000000 1.000000
 0.000000 1.000000
 1.000000 0.000000

8
 1.000000 0.000000
 0.000000 1.000000
 0.000000 1.000000
 0.000000 1.000000

16
 0.000000 1.000000
 0.000000 1.000000
 0.000000 1.000000
 0.000000 1.000000
 0.000000 1.000000
 0.000000 1.000000
 0.000000 1.000000
 1.000000 0.000000

2
 0.500000 0.500000

8
 0.000000 1.000000
 0.000000 1.000000
 0.000000 1.000000
 1.000000 0.000000

8
 0.000000 1.000000
 1.000000 0.000000
 1.000000 0.000000
 1.000000 0.000000

8
 1.000000 0.000000
 1.000000 0.000000
 1.000000 0.000000
 0.000000 1.000000

8
 1.000000 0.000000
 0.000000 1.000000
 0.000000 1.000000
 0.000000 1.000000

8
 0.000000 1.000000
 1.000000 0.000000
 1.000000 0.000000
 1.000000 0.000000

4
 0.000000 1.000000
 1.000000 0.000000

8
 1.000000 0.000000
 1.000000 0.000000
 1.000000 0.000000
 0.000000 1.000000

8
 0.000000 1.000000
 0.000000 1.000000
 0.000000 1.000000
 1.000000 0.000000

16
 0.000000 1.000000
 1.000000 0.000000
 1.000000 0.000000
 1.000000 0.000000
 1.000000 0.000000
 1.000000 0.000000
 1.000000 0.000000
 1.000000 0.000000

8
 0.000000 1.000000
 0.000000 1.000000
 0.000000 1.000000
 1.000000 0.000000

4
 0.000000 1.000000
 1.000000 0.000000

8
 0.000000 1.000000
 0.000000 1.000000
 0.000000 1.000000
 1.000000 0.000000

8
 0.000000 1.000000
 1.000000 0.000000
 1.000000 0.000000
 1.000000 0.000000

4
 0.000000 1.000000
 1.000000 0.000000

8
 0.000000 1.000000
 1.000000 0.000000
 1.000000 0.000000
 1.000000 0.000000

8
 1.000000 0.000000
 1.000000 0.000000
 1.000000 0.000000
 0.000000 1.000000

8
 0.000000 1.000000
 1.000000 0.000000
 1.000000 0.000000
 1.000000 0.000000

4
 0.000000 1.000000
 1.000000 0.000000

8
 1.000000 0.000000
 1.000000 0.000000
 1.000000 0.000000
 0.000000 1.000000

8
 0.000000 1.000000
 0.000000 1.000000
 0.000000 1.000000
 1.000000 0.000000

8
 0.000000 1.000000
 1.000000 0.000000
 1.000000 0.000000
 1.000000 0.000000

16
 0.000000 1.000000
 0.000000 1.000000
 0.000000 1.000000
 0.000000 1.000000
 0.000000 1.000000
 0.000000 1.000000
 0.000000 1.000000
 1.000000 0.000000

4
 0.000000 1.000000
 1.000000 0.000000

8
 0.000000 1.000000
 0.000000 1.000000
 0.000000 1.000000
 1.000000 0.000000

8
 1.000000 0.000000
 1.000000 0.000000
 1.000000 0.000000
 0.000000 1.000000

8
 0.000000 1.000000
 0.000000 1.000000
 0.000000 1.000000
 1.000000 0.000000

2
 0.500000 0.500000

8
 1.000000 0.000000
 0.000000 1.000000
 0.000000 1.000000
 0.000000 1.000000

8
 0.000000 1.000000
 0.000000 1.000000
 0.000000 1.000000
 1.000000 0.000000

8
 1.000000 0.000000
 0.000000 1.000000
 0.000000 1.000000
 0.000000 1.000000

8
 1.000000 0.000000
 1.000000 0.000000
 1.000000 0.000000
 0.000000 1.000000

4
 0.000000 1.000000
 1.000000 0.000000

4
 0.000000 1.000000
 1.000000 0.000000

4
 0.000000 1.000000
 1.000000 0.000000

8
 0.000000 1.000000
 0.000000 1.000000
 0.000000 1.000000
 1.000000 0.000000

8
 0.000000 1.000000
 1.000000 0.000000
 1.000000 0.000000
 1.000000 0.000000

8
 0.000000 1.000000
 1.000000 0.000000
 1.000000 0.000000
 1.000000 0.000000

16
 0.000000 1.000000
 0.000000 1.000000
 0.000000 1.000000
 0.000000 1.000000
 0.000000 1.000000
 0.000000 1.000000
 0.000000 1.000000
 1.000000 0.000000

4
 0.000000 1.000000
 1.000000 0.000000

8
 0.000000 1.000000
 0.000000 1.000000
 0.000000 1.000000
 1.000000 0.000000

8
 0.000000 1.000000
 0.000000 1.000000
 0.000000 1.000000
 1.000000 0.000000

2
 0.500000 0.500000

8
 0.000000 1.000000
 1.000000 0.000000
 1.000000 0.000000
 1.000000 0.000000

8
 0.000000 1.000000
 1.000000 0.000000
 1.000000 0.000000
 1.000000 0.000000

4
 0.000000 1.000000
 1.000000 0.000000

8
 1.000000 0.000000
 0.000000 1.000000
 0.000000 1.000000
 0.000000 1.000000

16
 0.000000 1.000000
 0.000000 1.000000
 0.000000 1.000000
 0.000000 1.000000
 0.000000 1.000000
 0.000000 1.000000
 0.000000 1.000000
 1.000000 0.000000

8
 0.000000 1.000000
 1.000000 0.000000
 1.000000 0.000000
 1.000000 0.000000

16
 0.000000 1.000000
 0.000000 1.000000
 0.000000 1.000000
 0.000000 1.000000
 0.000000 1.000000
 0.000000 1.000000
 0.000000 1.000000
 1.000000 0.000000

4
 0.000000 1.000000
 1.000000 0.000000

8
 0.000000 1.000000
 1.000000 0.000000
 1.000000 0.000000
 1.000000 0.000000

8
 0.000000 1.000000
 1.000000 0.000000
 1.000000 0.000000
 1.000000 0.000000

8
 0.000000 1.000000
 0.000000 1.000000
 0.000000 1.000000
 1.000000 0.000000

4
 0.000000 1.000000
 1.000000 0.000000

8
 0.000000 1.000000
 1.000000 0.000000
 1.000000 0.000000
 1.000000 0.000000

4
 0.000000 1.000000
 1.000000 0.000000

8
 1.000000 0.000000
 0.000000 1.000000
 0.000000 1.000000
 0.000000 1.000000

8
 0.000000 1.000000
 1.000000 0.000000
 1.000000 0.000000
 1.000000 0.000000

8
 1.000000 0.000000
 1.000000 0.000000
 1.000000 0.000000
 0.000000 1.000000

8
 0.000000 1.000000
 1.000000 0.000000
 1.000000 0.000000
 1.000000 0.000000

4
 0.000000 1.000000
 1.000000 0.000000

4
 0.000000 1.000000
 1.000000 0.000000

8
 0.000000 1.000000
 1.000000 0.000000
 1.000000 0.000000
 1.000000 0.000000

4
 0.000000 1.000000
 1.000000 0.000000

8
 0.000000 1.000000
 0.000000 1.000000
 0.000000 1.000000
 1.000000 0.000000

2
 0.500000 0.500000

4
 0.000000 1.000000
 1.000000 0.000000

8
 1.000000 0.000000
 0.000000 1.000000
 0.000000 1.000000
 0.000000 1.000000

8
 0.000000 1.000000
 0.000000 1.000000
 0.000000 1.000000
 1.000000 0.000000

8
 0.000000 1.000000
 0.000000 1.000000
 0.000000 1.000000
 1.000000 0.000000

8
 0.000000 1.000000
 1.000000 0.000000
 1.000000 0.000000
 1.000000 0.000000

8
 0.000000 1.000000
 1.000000 0.000000
 1.000000 0.000000
 1.000000 0.000000

8
 1.000000 0.000000
 0.000000 1.000000
 0.000000 1.000000
 0.000000 1.000000

4
 0.000000 1.000000
 1.000000 0.000000

8
 0.000000 1.000000
 0.000000 1.000000
 0.000000 1.000000
 1.000000 0.000000

8
 0.000000 1.000000
 0.000000 1.000000
 0.000000 1.000000
 1.000000 0.000000

8
 0.000000 1.000000
 1.000000 0.000000
 1.000000 0.000000
 1.000000 0.000000

8
 0.000000 1.000000
 1.000000 0.000000
 1.000000 0.000000
 1.000000 0.000000

8
 0.000000 1.000000
 0.000000 1.000000
 0.000000 1.000000
 1.000000 0.000000

8
 0.000000 1.000000
 1.000000 0.000000
 1.000000 0.000000
 1.000000 0.000000

4
 0.000000 1.000000
 1.000000 0.000000

8
 0.000000 1.000000
 0.000000 1.000000
 0.000000 1.000000
 1.000000 0.000000

8
 0.000000 1.000000
 1.000000 0.000000
 1.000000 0.000000
 1.000000 0.000000

8
 0.000000 1.000000
 1.000000 0.000000
 1.000000 0.000000
 1.000000 0.000000

8
 0.000000 1.000000
 1.000000 0.000000
 1.000000 0.000000
 1.000000 0.000000

4
 0.000000 1.000000
 1.000000 0.000000

8
 1.000000 0.000000
 0.000000 1.000000
 0.000000 1.000000
 0.000000 1.000000

8
 0.000000 1.000000
 0.000000 1.000000
 0.000000 1.000000
 1.000000 0.000000

8
 0.000000 1.000000
 0.000000 1.000000
 0.000000 1.000000
 1.000000 0.000000

8
 0.000000 1.000000
 0.000000 1.000000
 0.000000 1.000000
 1.000000 0.000000

8
 1.000000 0.000000
 1.000000 0.000000
 1.000000 0.000000
 0.000000 1.000000

8
 1.000000 0.000000
 0.000000 1.000000
 0.000000 1.000000
 0.000000 1.000000

8
 0.000000 1.000000
 0.000000 1.000000
 0.000000 1.000000
 1.000000 0.000000

8
 0.000000 1.000000
 0.000000 1.000000
 0.000000 1.000000
 1.000000 0.000000

8
 0.000000 1.000000
 0.000000 1.000000
 0.000000 1.000000
 1.000000 0.000000

8
 0.000000 1.000000
 0.000000 1.000000
 0.000000 1.000000
 1.000000 0.000000

8
 0.000000 1.000000
 1.000000 0.000000
 1.000000 0.000000
 1.000000 0.000000

8
 1.000000 0.000000
 1.000000 0.000000
 1.000000 0.000000
 0.000000 1.000000

2
 0.500000 0.500000

8
 0.000000 1.000000
 0.000000 1.000000
 0.000000 1.000000
 1.000000 0.000000

8
 0.000000 1.000000
 0.000000 1.000000
 0.000000 1.000000
 1.000000 0.000000

8
 0.000000 1.000000
 0.000000 1.000000
 0.000000 1.000000
 1.000000 0.000000

4
 0.000000 1.000000
 1.000000 0.000000

2
 0.500000 0.500000

8
 1.000000 0.000000
 1.000000 0.000000
 1.000000 0.000000
 0.000000 1.000000

4
 0.000000 1.000000
 1.000000 0.000000

8
 0.000000 1.000000
 0.000000 1.000000
 0.000000 1.000000
 1.000000 0.000000

8
 0.000000 1.000000
 1.000000 0.000000
 1.000000 0.000000
 1.000000 0.000000

16
 0.000000 1.000000
 0.000000 1.000000
 0.000000 1.000000
 0.000000 1.000000
 0.000000 1.000000
 0.000000 1.000000
 0.000000 1.000000
 1.000000 0.000000

8
 1.000000 0.000000
 1.000000 0.000000
 1.000000 0.000000
 0.000000 1.000000

16
 0.000000 1.000000
 0.000000 1.000000
 0.000000 1.000000
 0.000000 1.000000
 0.000000 1.000000
 0.000000 1.000000
 0.000000 1.000000
 1.000000 0.000000

8
 0.000000 1.000000
 0.000000 1.000000
 0.000000 1.000000
 1.000000 0.000000

8
 1.000000 0.000000
 1.000000 0.000000
 1.000000 0.000000
 0.000000 1.000000

8
 0.000000 1.000000
 0.000000 1.000000
 0.000000 1.000000
 1.000000 0.000000

8
 0.000000 1.000000
 0.000000 1.000000
 0.000000 1.000000
 1.000000 0.000000

16
 0.000000 1.000000
 0.000000 1.000000
 0.000000 1.000000
 0.000000 1.000000
 0.000000 1.000000
 0.000000 1.000000
 0.000000 1.000000
 1.000000 0.000000

8
 0.000000 1.000000
 0.000000 1.000000
 0.000000 1.000000
 1.000000 0.000000

8
 0.000000 1.000000
 0.000000 1.000000
 0.000000 1.000000
 1.000000 0.000000

16
 0.000000 1.000000
 1.000000 0.000000
 1.000000 0.000000
 1.000000 0.000000
 1.000000 0.000000
 1.000000 0.000000
 1.000000 0.000000
 1.000000 0.000000

8
 0.000000 1.000000
 0.000000 1.000000
 0.000000 1.000000
 1.000000 0.000000

2
 0.500000 0.500000

16
 0.000000 1.000000
 1.000000 0.000000
 1.000000 0.000000
 1.000000 0.000000
 1.000000 0.000000
 1.000000 0.000000
 1.000000 0.000000
 1.000000 0.000000

8
 1.000000 0.000000
 1.000000 0.000000
 1.000000 0.000000
 0.000000 1.000000

8
 0.000000 1.000000
 0.000000 1.000000
 0.000000 1.000000
 1.000000 0.000000

4
 0.000000 1.000000
 1.000000 0.000000

8
 0.000000 1.000000
 0.000000 1.000000
 0.000000 1.000000
 1.000000 0.000000

2
 0.500000 0.500000

8
 0.000000 1.000000
 0.000000 1.000000
 0.000000 1.000000
 1.000000 0.000000

8
 0.000000 1.000000
 0.000000 1.000000
 0.000000 1.000000
 1.000000 0.000000

8
 0.000000 1.000000
 0.000000 1.000000
 0.000000 1.000000
 1.000000 0.000000

8
 0.000000 1.000000
 1.000000 0.000000
 1.000000 0.000000
 1.000000 0.000000

4
 0.000000 1.000000
 1.000000 0.000000

8
 1.000000 0.000000
 0.000000 1.000000
 0.000000 1.000000
 0.000000 1.000000

8
 1.000000 0.000000
 1.000000 0.000000
 1.000000 0.000000
 0.000000 1.000000

8
 0.000000 1.000000
 1.000000 0.000000
 1.000000 0.000000
 1.000000 0.000000

8
 0.000000 1.000000
 1.000000 0.000000
 1.000000 0.000000
 1.000000 0.000000

8
 1.000000 0.000000
 1.000000 0.000000
 1.000000 0.000000
 0.000000 1.000000

8
 0.000000 1.000000
 1.000000 0.000000
 1.000000 0.000000
 1.000000 0.000000

4
 0.000000 1.000000
 1.000000 0.000000

2
 0.500000 0.500000

8
 1.000000 0.000000
 1.000000 0.000000
 1.000000 0.000000
 0.000000 1.000000

8
 0.000000 1.000000
 0.000000 1.000000
 0.000000 1.000000
 1.000000 0.000000

4
 0.000000 1.000000
 1.000000 0.000000

4
 0.000000 1.000000
 1.000000 0.000000

8
 1.000000 0.000000
 0.000000 1.000000
 0.000000 1.000000
 0.000000 1.000000

2
 0.500000 0.500000

8
 0.000000 1.000000
 0.000000 1.000000
 0.000000 1.000000
 1.000000 0.000000

4
 0.000000 1.000000
 1.000000 0.000000

8
 0.000000 1.000000
 0.000000 1.000000
 0.000000 1.000000
 1.000000 0.000000

8
 0.000000 1.000000
 1.000000 0.000000
 1.000000 0.000000
 1.000000 0.000000

8
 0.000000 1.000000
 0.000000 1.000000
 0.000000 1.000000
 1.000000 0.000000

16
 0.000000 1.000000
 1.000000 0.000000
 1.000000 0.000000
 1.000000 0.000000
 1.000000 0.000000
 1.000000 0.000000
 1.000000 0.000000
 1.000000 0.000000

8
 0.000000 1.000000
 0.000000 1.000000
 0.000000 1.000000
 1.000000 0.000000

8
 1.000000 0.000000
 0.000000 1.000000
 0.000000 1.000000
 0.000000 1.000000

8
 1.000000 0.000000
 0.000000 1.000000
 0.000000 1.000000
 0.000000 1.000000

2
 0.500000 0.500000

8
 0.000000 1.000000
 0.000000 1.000000
 0.000000 1.000000
 1.000000 0.000000

8
 0.000000 1.000000
 0.000000 1.000000
 0.000000 1.000000
 1.000000 0.000000

4
 0.000000 1.000000
 1.000000 0.000000

2
 0.500000 0.500000

4
 0.000000 1.000000
 1.000000 0.000000

4
 0.000000 1.000000
 1.000000 0.000000

2
 0.500000 0.500000

4
 0.000000 1.000000
 1.000000 0.000000

8
 1.000000 0.000000
 0.000000 1.000000
 0.000000 1.000000
 0.000000 1.000000

4
 0.000000 1.000000
 1.000000 0.000000

8
 0.000000 1.000000
 0.000000 1.000000
 0.000000 1.000000
 1.000000 0.000000

8
 0.000000 1.000000
 1.000000 0.000000
 1.000000 0.000000
 1.000000 0.000000

16
 0.000000 1.000000
 1.000000 0.000000
 1.000000 0.000000
 1.000000 0.000000
 1.000000 0.000000
 1.000000 0.000000
 1.000000 0.000000
 1.000000 0.000000

8
 0.000000 1.000000
 1.000000 0.000000
 1.000000 0.000000
 1.000000 0.000000

8
 0.000000 1.000000
 1.000000 0.000000
 1.000000 0.000000
 1.000000 0.000000

16
 0.000000 1.000000
 1.000000 0.000000
 1.000000 0.000000
 1.000000 0.000000
 1.000000 0.000000
 1.000000 0.000000
 1.000000 0.000000
 1.000000 0.000000

4
 0.000000 1.000000
 1.000000 0.000000

8
 0.000000 1.000000
 1.000000 0.000000
 1.000000 0.000000
 1.000000 0.000000

8
 0.000000 1.000000
 1.000000 0.000000
 1.000000 0.000000
 1.000000 0.000000

4
 0.000000 1.000000
 1.000000 0.000000

8
 0.000000 1.000000
 1.000000 0.000000
 1.000000 0.000000
 1.000000 0.000000

8
 1.000000 0.000000
 1.000000 0.000000
 1.000000 0.000000
 0.000000 1.000000

2
 0.500000 0.500000

4
 0.000000 1.000000
 1.000000 0.000000

4
 0.000000 1.000000
 1.000000 0.000000

8
 0.000000 1.000000
 0.000000 1.000000
 0.000000 1.000000
 1.000000 0.000000

8
 0.000000 1.000000
 1.000000 0.000000
 1.000000 0.000000
 1.000000 0.000000

8
 0.000000 1.000000
 0.000000 1.000000
 0.000000 1.000000
 1.000000 0.000000

2
 0.500000 0.500000

4
 0.000000 1.000000
 1.000000 0.000000

8
 0.000000 1.000000
 0.000000 1.000000
 0.000000 1.000000
 1.000000 0.000000

4
 0.000000 1.000000
 1.000000 0.000000

8
 0.000000 1.000000
 0.000000 1.000000
 0.000000 1.000000
 1.000000 0.000000

8
 1.000000 0.000000
 0.000000 1.000000
 0.000000 1.000000
 0.000000 1.000000

8
 1.000000 0.000000
 1.000000 0.000000
 1.000000 0.000000
 0.000000 1.000000

2
 0.500000 0.500000

8
 1.000000 0.000000
 1.000000 0.000000
 1.000000 0.000000
 0.000000 1.000000

